42
23
0 26 27 28 31 34 35 41
1 24 27 28 34 35 37 40 41
2 23 27 28 29 31 34 35 36 37 38
3 24 26 27 28 29 31 33 35 37 39 40
4 26 27 28 32 34 35 37 38 39 40 41
5 27 31 34 35 37
6 26 28 30 36 41
7 24 25 26 27 28 34 37 38 40 41
8 23 26 31 34 35 37 40
9 26 27 28 29 32 34 35 37 40
10 23 29 32 34 35 37 41
11 24 26 27 28 29 31 32 34 35 37 38 40 41
12 28 29 32 37 41
13 23 26 27 32 34 41
14 23 31 34 35 37 39
15 28 29 34 38 39
16 23 31 32 35 41
17 24 27 28
18 25 29 31 38 41
19 26 38
20 41
21 33 34 36
22 26
